TOUR_SECTION
1
23
170
125
84
133
74
198
62
82
145
162
3
112
136
50
55
151
49
59
11
126
93
88
156
79
172
111
193
21
143
180
158
92
15
155
114
47
10
132
14
159
182
8
117
86
188
185
102
71
17
35
85
63
115
109
181
142
94
113
18
123
191
161
131
68
186
6
24
149
4
110
51
121
78
197
2
152
77
107
67
54
81
122
166
5
163
30
189
80
184
39
72
127
36
52
106
37
69
101
16
20
100
45
33
99
34
29
41
26
120
76
42
167
179
53
22
60
32
160
173
75
118
12
140
177
175
104
168
148
128
98
135
25
134
178
138
57
56
40
90
116
183
154
164
38
46
7
96
201
13
19
195
103
61
28
58
174
65
147
27
43
165
139
200
144
119
137
196
169
194
105
95
190
91
124
89
129
31
48
70
187
199
87
146
150
157
66
83
44
176
141
108
192
153
171
9
97
73
64
130
-1
EOF